c WARNING: for repeatability, setting FPU to use double precision
d VARIABLES            228738       
d CONSTRAINTS          847176       
c ============================[ Problem Statistics ]=============================
c |                                                                             |
c |  Number of variables:        228738                                         |
c |  Number of clauses:          847176                                         |
c |  Parse time:                   0.14 s                                       |
c |                                                                             |
c ============================[ Search Statistics ]==============================
c | Conflicts |          ORIGINAL         |          LEARNT          | Progress |
c |           |    Vars  Clauses Literals |    Limit  Clauses Lit/Cl |          |
c ===============================================================================
c |       100 |  188479   742754  1863597 |   272343      100     56 | 17.600 % |
c |       250 |  188479   742754  1863597 |   299577      250     50 | 17.600 % |
c |       475 |  188479   742754  1863597 |   329535      475     30 | 17.600 % |
c |       812 |  188479   742754  1863597 |   362488      812     19 | 17.600 % |
c |      1318 |  188479   742754  1863597 |   398737     1318     17 | 17.600 % |
c |      2077 |  188479   742754  1863597 |   438611     2077     16 | 17.600 % |
c |      3216 |  188479   742754  1863597 |   482472     3216     17 | 17.600 % |
c |      4924 |  188479   742754  1863597 |   530719     4924     23 | 17.600 % |
c |      7486 |  188479   742754  1863597 |   583791     7486     48 | 17.600 % |
c |     11330 |  188479   742754  1863597 |   642170    11330     68 | 17.600 % |
c |     17096 |  188479   742754  1863597 |   706387    17096     94 | 17.600 % |
c |     25745 |  188479   742754  1863597 |   777026    25745    115 | 17.600 % |
c |     38719 |  188479   742754  1863597 |   854729    38719    127 | 17.600 % |
c |     58180 |  188479   742754  1863597 |   940202    58180    124 | 17.600 % |
c |     87372 |  188479   742754  1863597 |  1034222    87372    132 | 17.600 % |
c |    131161 |  188479   742754  1863597 |  1137644   131161    133 | 17.600 % |
c |    196845 |  188478   742750  1863587 |  1251409   196844    136 | 17.601 % |
c |    295371 |  188478   742750  1863587 |  1376550   295370    144 | 17.601 % |
c |    443160 |  188478   742750  1863587 |  1514205   443159    163 | 17.601 % |
c |    664843 |  188478   742750  1863587 |  1665625   664842    189 | 17.601 % |
c |    997368 |  188478   742750  1863587 |  1832188   997367    204 | 17.601 % |
c ===============================================================================
c restarts              : 2380
c conflicts             : 1253254        (1721 /sec)
c decisions             : 5362731        (0.00 % random) (7362 /sec)
c propagations          : 1890129656     (2594829 /sec)
c conflict literals     : 257569063      (24.85 % deleted)
d RESTARTS             2380
d FAILURES             1253254      
d NODES                5362731      
d BACKTRACKS           5362731      
d PROPAGATIONS         1890129656   
d NOGOODSIZE           205.52 
d MEMORY               1587.00 
d TIME                 728.422 

s SATISFIABLE
